NAME : LPS-n26-m71
COMMENT : (Lartu-Peter-Santi Plot, instance 9271 out of 39200. 26 customers.)
TYPE : CVRP
DIMENSION : 26
EDGE_WEIGHT_TYPE : EUC_2D
CAPACITY : 134
NODE_COORD_SECTION
 1 61 11
 2 68 98
 3 16 99
 4 7 87
 5 43 18
 6 35 95
 7 38 36
 8 63 44
 9 36 93
 10 64 57
 11 98 8
 12 24 39
 13 12 72
 14 15 49
 15 94 11
 16 7 43
 17 31 74
 18 0 64
 19 0 24
 20 44 8
 21 17 64
 22 37 28
 23 96 91
 24 4 67
 25 35 44
 26 25 12
DEMAND_SECTION
1 0
2 73
3 133
4 115
5 70
6 38
7 3
8 101
9 2
10 3
11 22
12 4
13 97
14 83
15 79
16 44
17 39
18 39
19 77
20 95
21 130
22 89
23 22
24 110
25 105
26 107
DEPOT_SECTION
 1
 -1
EOF
